Translating instance to solver...

Set parameter TimeLimit to value 28800
Gurobi Optimizer version 11.0.2 build v11.0.2rc0 (linux64 - "Ubuntu 22.04.4 LTS")

CPU model: Intel(R) Xeon(R) Gold 5120 CPU @ 2.20GHz, instruction set [SSE2|AVX|AVX2|AVX512]
Thread count: 28 physical cores, 56 logical processors, using up to 28 threads

Academic license 2463511 - for non-commercial use only - registered to lu___@cefet-rj.br
Optimize a model with 24835 rows, 13713 columns and 58929 nonzeros
Model fingerprint: 0x3658895f
Variable types: 1 continuous, 13712 integer (13680 binary)
Coefficient statistics:
  Matrix range     [1e+00, 1e+05]
  Objective range  [3e-01, 8e-01]
  Bounds range     [1e+00, 3e+01]
  RHS range        [1e+00, 6e+01]
Presolve removed 21476 rows and 12274 columns
Presolve time: 0.28s
Presolved: 3359 rows, 1439 columns, 10983 nonzeros
Variable types: 0 continuous, 1439 integer (1408 binary)

Root relaxation: objective 1.140043e+00, 639 iterations, 0.02 seconds (0.02 work units)

    Nodes    |    Current Node    |     Objective Bounds      |     Work
 Expl Unexpl |  Obj  Depth IntInf | Incumbent    BestBd   Gap | It/Node Time

     0     0    1.14004    0   82          -    1.14004      -     -    0s
H    0     0                       2.8794550    1.14004  60.4%     -    0s
H    0     0                       2.5735640    1.14004  55.7%     -    0s
H    0     0                       2.2676730    1.14004  49.7%     -    0s
     0     0    1.34516    0  171    2.26767    1.34516  40.7%     -    0s
     0     0    1.36767    0   63    2.26767    1.36767  39.7%     -    0s
     0     0    1.36767    0   99    2.26767    1.36767  39.7%     -    0s
H    0     0                       1.8176730    1.36767  24.8%     -    0s
     0     0    1.36767    0  139    1.81767    1.36767  24.8%     -    0s
     0     0    1.36767    0  166    1.81767    1.36767  24.8%     -    0s
     0     0    1.36767    0  128    1.81767    1.36767  24.8%     -    0s
     0     0    1.36767    0   80    1.81767    1.36767  24.8%     -    0s
H    0     0                       1.5117820    1.36767  9.53%     -    0s
     0     0    1.36767    0  197    1.51178    1.36767  9.53%     -    1s
     0     0    1.36767    0  177    1.51178    1.36767  9.53%     -    1s
     0     0    1.36767    0  149    1.51178    1.36767  9.53%     -    1s
     0     0    1.36767    0   68    1.51178    1.36767  9.53%     -    1s
     0     0    1.36767    0   76    1.51178    1.36767  9.53%     -    1s
     0     0    1.36767    0  135    1.51178    1.36767  9.53%     -    1s
     0     0    1.36767    0   93    1.51178    1.36767  9.53%     -    1s
     0     0    1.36767    0  173    1.51178    1.36767  9.53%     -    1s
     0     0    1.36767    0  164    1.51178    1.36767  9.53%     -    1s
     0     0    1.36767    0  161    1.51178    1.36767  9.53%     -    1s
     0     0    1.36767    0  212    1.51178    1.36767  9.53%     -    1s
     0     0    1.36767    0  204    1.51178    1.36767  9.53%     -    1s
     0     0    1.36767    0  151    1.51178    1.36767  9.53%     -    1s
     0     0    1.36767    0   42    1.51178    1.36767  9.53%     -    2s
     0     0    1.36767    0  179    1.51178    1.36767  9.53%     -    2s
     0     0    1.36767    0  158    1.51178    1.36767  9.53%     -    2s
     0     0    1.41865    0   65    1.51178    1.41865  6.16%     -    2s
     0     0    1.45507    0   65    1.51178    1.45507  3.75%     -    2s
     0     0    1.45507    0   79    1.51178    1.45507  3.75%     -    2s
     0     0    1.45507    0  100    1.51178    1.45507  3.75%     -    2s
     0     0    1.45507    0  162    1.51178    1.45507  3.75%     -    2s
     0     0    1.45507    0  159    1.51178    1.45507  3.75%     -    2s
     0     0    1.45507    0  133    1.51178    1.45507  3.75%     -    3s
     0     0    1.45507    0  179    1.51178    1.45507  3.75%     -    3s
     0     0    1.45507    0   39    1.51178    1.45507  3.75%     -    3s
     0     0    1.45507    0  138    1.51178    1.45507  3.75%     -    3s
     0     0    1.45507    0   93    1.51178    1.45507  3.75%     -    3s
     0     0    1.45507    0   93    1.51178    1.45507  3.75%     -    3s
     0     2    1.45507    0   93    1.51178    1.45507  3.75%     -    4s

Cutting planes:
  Learned: 23
  Gomory: 1
  Implied bound: 38
  Clique: 5
  MIR: 32
  StrongCG: 1
  Zero half: 4
  RLT: 57
  Relax-and-lift: 29
  BQP: 11

Explored 10 nodes (24294 simplex iterations) in 4.31 seconds (2.98 work units)
Thread count was 28 (of 56 available processors)

Solution count 5: 1.51178 1.81767 2.26767 ... 2.87946

Optimal solution found (tolerance 1.00e-04)
Best objective 1.511782000000e+00, best bound 1.511782000000e+00, gap 0.0000%

Solver Wallclock Time (for this epsilon): 4.310175895690918 s
Python wallclock Time (for this epsilon): 6.113485336303711 s


Total Elapsed Time (since program call): 56.462294816970825 s

Results:

I = 1.511782 mA
C = 70.0 points
C ~= 28.0 km^2

Minimum Epsilon for this instance = 10
Maximum Epsilon for this instance = 100

Current Epsilon = 60


Preprocessing Time (for this epsilon): 0.005191802978515625 s


Updated solution vectors:
sol_I = [-0.611782,-1.061782,-1.061782,-1.061782,-1.061782,-1.511782]
sol_C = [12.0,28.0,47.0,47.0,52.0,70.0]
sol_eps = [10,20,30,40,50,60]
sol_gap = [0.0,0.0,0.0,0.0,7.10526315561566e-08,0.0]
